50
21492

135 332
419 725
991 354
110 307
655 484
331 225
590 774
638 856
508 394
946 191
873 888
752 920
495 238
586 152
292 980
116 205
712 128
698 460
446 921
217 505
742 213
902 374
239 449
733 674
955 195
929 287
959 298
531 136
143 147
619 187
165 168
867 347
326 15
191 928
607 948
934 543
13 973
271 474
599 477
342 763
48 915
117 756
272 620
136 223
294 139
450 953
26 920
200 278
416 447
106 412
